c File: flat150_3_0.col
c
c SOURCE: Joseph Culberson (joe@cs.ualberta.ca)
c DESCRIPTION: Quasi-random coloring problem
c              generated with flatness = 0
c                             probability = 0.048
c                             known coloring = 3
c                             random seed = 1055
c              Creation Date:  Wed Feb 24 10:37:35 1999
c Maximum degree = 8 Minimum degree = 1
c COLOR VERIFICATION: Using the permuted order
c under simple greedy yields the specified
c coloring number
c Color = 3 specified partitions = 3
c p edge 150 360
c cnf created by edge2cnf
p cnf 450 1680
-1 -2 0
-1 -3 0
-2 -3 0
1 2 3 0
-4 -5 0
-4 -6 0
-5 -6 0
4 5 6 0
-7 -8 0
-7 -9 0
-8 -9 0
7 8 9 0
-10 -11 0
-10 -12 0
-11 -12 0
10 11 12 0
-13 -14 0
-13 -15 0
-14 -15 0
13 14 15 0
-16 -17 0
-16 -18 0
-17 -18 0
16 17 18 0
-19 -20 0
-19 -21 0
-20 -21 0
19 20 21 0
-22 -23 0
-22 -24 0
-23 -24 0
22 23 24 0
-25 -26 0
-25 -27 0
-26 -27 0
25 26 27 0
-28 -29 0
-28 -30 0
-29 -30 0
28 29 30 0
-31 -32 0
-31 -33 0
-32 -33 0
31 32 33 0
-34 -35 0
-34 -36 0
-35 -36 0
34 35 36 0
-37 -38 0
-37 -39 0
-38 -39 0
37 38 39 0
-40 -41 0
-40 -42 0
-41 -42 0
40 41 42 0
-43 -44 0
-43 -45 0
-44 -45 0
43 44 45 0
-46 -47 0
-46 -48 0
-47 -48 0
46 47 48 0
-49 -50 0
-49 -51 0
-50 -51 0
49 50 51 0
-52 -53 0
-52 -54 0
-53 -54 0
52 53 54 0
-55 -56 0
-55 -57 0
-56 -57 0
55 56 57 0
-58 -59 0
-58 -60 0
-59 -60 0
58 59 60 0
-61 -62 0
-61 -63 0
-62 -63 0
61 62 63 0
-64 -65 0
-64 -66 0
-65 -66 0
64 65 66 0
-67 -68 0
-67 -69 0
-68 -69 0
67 68 69 0
-70 -71 0
-70 -72 0
-71 -72 0
70 71 72 0
-73 -74 0
-73 -75 0
-74 -75 0
73 74 75 0
-76 -77 0
-76 -78 0
-77 -78 0
76 77 78 0
-79 -80 0
-79 -81 0
-80 -81 0
79 80 81 0
-82 -83 0
-82 -84 0
-83 -84 0
82 83 84 0
-85 -86 0
-85 -87 0
-86 -87 0
85 86 87 0
-88 -89 0
-88 -90 0
-89 -90 0
88 89 90 0
-91 -92 0
-91 -93 0
-92 -93 0
91 92 93 0
-94 -95 0
-94 -96 0
-95 -96 0
94 95 96 0
-97 -98 0
-97 -99 0
-98 -99 0
97 98 99 0
-100 -101 0
-100 -102 0
-101 -102 0
100 101 102 0
-103 -104 0
-103 -105 0
-104 -105 0
103 104 105 0
-106 -107 0
-106 -108 0
-107 -108 0
106 107 108 0
-109 -110 0
-109 -111 0
-110 -111 0
109 110 111 0
-112 -113 0
-112 -114 0
-113 -114 0
112 113 114 0
-115 -116 0
-115 -117 0
-116 -117 0
115 116 117 0
-118 -119 0
-118 -120 0
-119 -120 0
118 119 120 0
-121 -122 0
-121 -123 0
-122 -123 0
121 122 123 0
-124 -125 0
-124 -126 0
-125 -126 0
124 125 126 0
-127 -128 0
-127 -129 0
-128 -129 0
127 128 129 0
-130 -131 0
-130 -132 0
-131 -132 0
130 131 132 0
-133 -134 0
-133 -135 0
-134 -135 0
133 134 135 0
-136 -137 0
-136 -138 0
-137 -138 0
136 137 138 0
-139 -140 0
-139 -141 0
-140 -141 0
139 140 141 0
-142 -143 0
-142 -144 0
-143 -144 0
142 143 144 0
-145 -146 0
-145 -147 0
-146 -147 0
145 146 147 0
-148 -149 0
-148 -150 0
-149 -150 0
148 149 150 0
-151 -152 0
-151 -153 0
-152 -153 0
151 152 153 0
-154 -155 0
-154 -156 0
-155 -156 0
154 155 156 0
-157 -158 0
-157 -159 0
-158 -159 0
157 158 159 0
-160 -161 0
-160 -162 0
-161 -162 0
160 161 162 0
-163 -164 0
-163 -165 0
-164 -165 0
163 164 165 0
-166 -167 0
-166 -168 0
-167 -168 0
166 167 168 0
-169 -170 0
-169 -171 0
-170 -171 0
169 170 171 0
-172 -173 0
-172 -174 0
-173 -174 0
172 173 174 0
-175 -176 0
-175 -177 0
-176 -177 0
175 176 177 0
-178 -179 0
-178 -180 0
-179 -180 0
178 179 180 0
-181 -182 0
-181 -183 0
-182 -183 0
181 182 183 0
-184 -185 0
-184 -186 0
-185 -186 0
184 185 186 0
-187 -188 0
-187 -189 0
-188 -189 0
187 188 189 0
-190 -191 0
-190 -192 0
-191 -192 0
190 191 192 0
-193 -194 0
-193 -195 0
-194 -195 0
193 194 195 0
-196 -197 0
-196 -198 0
-197 -198 0
196 197 198 0
-199 -200 0
-199 -201 0
-200 -201 0
199 200 201 0
-202 -203 0
-202 -204 0
-203 -204 0
202 203 204 0
-205 -206 0
-205 -207 0
-206 -207 0
205 206 207 0
-208 -209 0
-208 -210 0
-209 -210 0
208 209 210 0
-211 -212 0
-211 -213 0
-212 -213 0
211 212 213 0
-214 -215 0
-214 -216 0
-215 -216 0
214 215 216 0
-217 -218 0
-217 -219 0
-218 -219 0
217 218 219 0
-220 -221 0
-220 -222 0
-221 -222 0
220 221 222 0
-223 -224 0
-223 -225 0
-224 -225 0
223 224 225 0
-226 -227 0
-226 -228 0
-227 -228 0
226 227 228 0
-229 -230 0
-229 -231 0
-230 -231 0
229 230 231 0
-232 -233 0
-232 -234 0
-233 -234 0
232 233 234 0
-235 -236 0
-235 -237 0
-236 -237 0
235 236 237 0
-238 -239 0
-238 -240 0
-239 -240 0
238 239 240 0
-241 -242 0
-241 -243 0
-242 -243 0
241 242 243 0
-244 -245 0
-244 -246 0
-245 -246 0
244 245 246 0
-247 -248 0
-247 -249 0
-248 -249 0
247 248 249 0
-250 -251 0
-250 -252 0
-251 -252 0
250 251 252 0
-253 -254 0
-253 -255 0
-254 -255 0
253 254 255 0
-256 -257 0
-256 -258 0
-257 -258 0
256 257 258 0
-259 -260 0
-259 -261 0
-260 -261 0
259 260 261 0
-262 -263 0
-262 -264 0
-263 -264 0
262 263 264 0
-265 -266 0
-265 -267 0
-266 -267 0
265 266 267 0
-268 -269 0
-268 -270 0
-269 -270 0
268 269 270 0
-271 -272 0
-271 -273 0
-272 -273 0
271 272 273 0
-274 -275 0
-274 -276 0
-275 -276 0
274 275 276 0
-277 -278 0
-277 -279 0
-278 -279 0
277 278 279 0
-280 -281 0
-280 -282 0
-281 -282 0
280 281 282 0
-283 -284 0
-283 -285 0
-284 -285 0
283 284 285 0
-286 -287 0
-286 -288 0
-287 -288 0
286 287 288 0
-289 -290 0
-289 -291 0
-290 -291 0
289 290 291 0
-292 -293 0
-292 -294 0
-293 -294 0
292 293 294 0
-295 -296 0
-295 -297 0
-296 -297 0
295 296 297 0
-298 -299 0
-298 -300 0
-299 -300 0
298 299 300 0
-301 -302 0
-301 -303 0
-302 -303 0
301 302 303 0
-304 -305 0
-304 -306 0
-305 -306 0
304 305 306 0
-307 -308 0
-307 -309 0
-308 -309 0
307 308 309 0
-310 -311 0
-310 -312 0
-311 -312 0
310 311 312 0
-313 -314 0
-313 -315 0
-314 -315 0
313 314 315 0
-316 -317 0
-316 -318 0
-317 -318 0
316 317 318 0
-319 -320 0
-319 -321 0
-320 -321 0
319 320 321 0
-322 -323 0
-322 -324 0
-323 -324 0
322 323 324 0
-325 -326 0
-325 -327 0
-326 -327 0
325 326 327 0
-328 -329 0
-328 -330 0
-329 -330 0
328 329 330 0
-331 -332 0
-331 -333 0
-332 -333 0
331 332 333 0
-334 -335 0
-334 -336 0
-335 -336 0
334 335 336 0
-337 -338 0
-337 -339 0
-338 -339 0
337 338 339 0
-340 -341 0
-340 -342 0
-341 -342 0
340 341 342 0
-343 -344 0
-343 -345 0
-344 -345 0
343 344 345 0
-346 -347 0
-346 -348 0
-347 -348 0
346 347 348 0
-349 -350 0
-349 -351 0
-350 -351 0
349 350 351 0
-352 -353 0
-352 -354 0
-353 -354 0
352 353 354 0
-355 -356 0
-355 -357 0
-356 -357 0
355 356 357 0
-358 -359 0
-358 -360 0
-359 -360 0
358 359 360 0
-361 -362 0
-361 -363 0
-362 -363 0
361 362 363 0
-364 -365 0
-364 -366 0
-365 -366 0
364 365 366 0
-367 -368 0
-367 -369 0
-368 -369 0
367 368 369 0
-370 -371 0
-370 -372 0
-371 -372 0
370 371 372 0
-373 -374 0
-373 -375 0
-374 -375 0
373 374 375 0
-376 -377 0
-376 -378 0
-377 -378 0
376 377 378 0
-379 -380 0
-379 -381 0
-380 -381 0
379 380 381 0
-382 -383 0
-382 -384 0
-383 -384 0
382 383 384 0
-385 -386 0
-385 -387 0
-386 -387 0
385 386 387 0
-388 -389 0
-388 -390 0
-389 -390 0
388 389 390 0
-391 -392 0
-391 -393 0
-392 -393 0
391 392 393 0
-394 -395 0
-394 -396 0
-395 -396 0
394 395 396 0
-397 -398 0
-397 -399 0
-398 -399 0
397 398 399 0
-400 -401 0
-400 -402 0
-401 -402 0
400 401 402 0
-403 -404 0
-403 -405 0
-404 -405 0
403 404 405 0
-406 -407 0
-406 -408 0
-407 -408 0
406 407 408 0
-409 -410 0
-409 -411 0
-410 -411 0
409 410 411 0
-412 -413 0
-412 -414 0
-413 -414 0
412 413 414 0
-415 -416 0
-415 -417 0
-416 -417 0
415 416 417 0
-418 -419 0
-418 -420 0
-419 -420 0
418 419 420 0
-421 -422 0
-421 -423 0
-422 -423 0
421 422 423 0
-424 -425 0
-424 -426 0
-425 -426 0
424 425 426 0
-427 -428 0
-427 -429 0
-428 -429 0
427 428 429 0
-430 -431 0
-430 -432 0
-431 -432 0
430 431 432 0
-433 -434 0
-433 -435 0
-434 -435 0
433 434 435 0
-436 -437 0
-436 -438 0
-437 -438 0
436 437 438 0
-439 -440 0
-439 -441 0
-440 -441 0
439 440 441 0
-442 -443 0
-442 -444 0
-443 -444 0
442 443 444 0
-445 -446 0
-445 -447 0
-446 -447 0
445 446 447 0
-448 -449 0
-448 -450 0
-449 -450 0
448 449 450 0
-43 -1 0
-44 -2 0
-45 -3 0
-97 -1 0
-98 -2 0
-99 -3 0
-196 -1 0
-197 -2 0
-198 -3 0
-220 -4 0
-221 -5 0
-222 -6 0
-274 -4 0
-275 -5 0
-276 -6 0
-337 -4 0
-338 -5 0
-339 -6 0
-412 -4 0
-413 -5 0
-414 -6 0
-436 -4 0
-437 -5 0
-438 -6 0
-85 -7 0
-86 -8 0
-87 -9 0
-88 -7 0
-89 -8 0
-90 -9 0
-337 -7 0
-338 -8 0
-339 -9 0
-358 -7 0
-359 -8 0
-360 -9 0
-49 -10 0
-50 -11 0
-51 -12 0
-73 -10 0
-74 -11 0
-75 -12 0
-346 -10 0
-347 -11 0
-348 -12 0
-445 -10 0
-446 -11 0
-447 -12 0
-25 -13 0
-26 -14 0
-27 -15 0
-118 -13 0
-119 -14 0
-120 -15 0
-163 -13 0
-164 -14 0
-165 -15 0
-283 -13 0
-284 -14 0
-285 -15 0
-358 -13 0
-359 -14 0
-360 -15 0
-274 -16 0
-275 -17 0
-276 -18 0
-313 -16 0
-314 -17 0
-315 -18 0
-319 -16 0
-320 -17 0
-321 -18 0
-400 -16 0
-401 -17 0
-402 -18 0
-412 -16 0
-413 -17 0
-414 -18 0
-223 -19 0
-224 -20 0
-225 -21 0
-271 -19 0
-272 -20 0
-273 -21 0
-439 -19 0
-440 -20 0
-441 -21 0
-88 -22 0
-89 -23 0
-90 -24 0
-106 -22 0
-107 -23 0
-108 -24 0
-253 -22 0
-254 -23 0
-255 -24 0
-370 -22 0
-371 -23 0
-372 -24 0
-373 -22 0
-374 -23 0
-375 -24 0
-142 -25 0
-143 -26 0
-144 -27 0
-223 -25 0
-224 -26 0
-225 -27 0
-238 -25 0
-239 -26 0
-240 -27 0
-286 -25 0
-287 -26 0
-288 -27 0
-379 -25 0
-380 -26 0
-381 -27 0
-412 -25 0
-413 -26 0
-414 -27 0
-430 -25 0
-431 -26 0
-432 -27 0
-229 -28 0
-230 -29 0
-231 -30 0
-286 -28 0
-287 -29 0
-288 -30 0
-364 -28 0
-365 -29 0
-366 -30 0
-436 -28 0
-437 -29 0
-438 -30 0
-295 -31 0
-296 -32 0
-297 -33 0
-427 -31 0
-428 -32 0
-429 -33 0
-433 -31 0
-434 -32 0
-435 -33 0
-49 -34 0
-50 -35 0
-51 -36 0
-124 -34 0
-125 -35 0
-126 -36 0
-268 -34 0
-269 -35 0
-270 -36 0
-376 -34 0
-377 -35 0
-378 -36 0
-109 -37 0
-110 -38 0
-111 -39 0
-235 -37 0
-236 -38 0
-237 -39 0
-262 -37 0
-263 -38 0
-264 -39 0
-331 -37 0
-332 -38 0
-333 -39 0
-373 -37 0
-374 -38 0
-375 -39 0
-388 -37 0
-389 -38 0
-390 -39 0
-205 -40 0
-206 -41 0
-207 -42 0
-82 -43 0
-83 -44 0
-84 -45 0
-91 -43 0
-92 -44 0
-93 -45 0
-172 -43 0
-173 -44 0
-174 -45 0
-187 -43 0
-188 -44 0
-189 -45 0
-223 -43 0
-224 -44 0
-225 -45 0
-445 -43 0
-446 -44 0
-447 -45 0
-52 -46 0
-53 -47 0
-54 -48 0
-55 -46 0
-56 -47 0
-57 -48 0
-61 -46 0
-62 -47 0
-63 -48 0
-355 -46 0
-356 -47 0
-357 -48 0
-73 -49 0
-74 -50 0
-75 -51 0
-112 -49 0
-113 -50 0
-114 -51 0
-127 -49 0
-128 -50 0
-129 -51 0
-151 -49 0
-152 -50 0
-153 -51 0
-193 -49 0
-194 -50 0
-195 -51 0
-439 -49 0
-440 -50 0
-441 -51 0
-61 -52 0
-62 -53 0
-63 -54 0
-151 -52 0
-152 -53 0
-153 -54 0
-367 -52 0
-368 -53 0
-369 -54 0
-106 -55 0
-107 -56 0
-108 -57 0
-199 -55 0
-200 -56 0
-201 -57 0
-271 -55 0
-272 -56 0
-273 -57 0
-289 -55 0
-290 -56 0
-291 -57 0
-310 -55 0
-311 -56 0
-312 -57 0
-88 -58 0
-89 -59 0
-90 -60 0
-91 -58 0
-92 -59 0
-93 -60 0
-112 -58 0
-113 -59 0
-114 -60 0
-196 -58 0
-197 -59 0
-198 -60 0
-232 -58 0
-233 -59 0
-234 -60 0
-262 -58 0
-263 -59 0
-264 -60 0
-316 -58 0
-317 -59 0
-318 -60 0
-325 -58 0
-326 -59 0
-327 -60 0
-448 -61 0
-449 -62 0
-450 -63 0
-106 -64 0
-107 -65 0
-108 -66 0
-259 -64 0
-260 -65 0
-261 -66 0
-418 -64 0
-419 -65 0
-420 -66 0
-70 -67 0
-71 -68 0
-72 -69 0
-208 -67 0
-209 -68 0
-210 -69 0
-223 -67 0
-224 -68 0
-225 -69 0
-310 -67 0
-311 -68 0
-312 -69 0
-409 -67 0
-410 -68 0
-411 -69 0
-448 -67 0
-449 -68 0
-450 -69 0
-79 -70 0
-80 -71 0
-81 -72 0
-166 -70 0
-167 -71 0
-168 -72 0
-340 -70 0
-341 -71 0
-342 -72 0
-403 -70 0
-404 -71 0
-405 -72 0
-91 -73 0
-92 -74 0
-93 -75 0
-115 -73 0
-116 -74 0
-117 -75 0
-313 -73 0
-314 -74 0
-315 -75 0
-379 -73 0
-380 -74 0
-381 -75 0
-301 -76 0
-302 -77 0
-303 -78 0
-352 -76 0
-353 -77 0
-354 -78 0
-445 -76 0
-446 -77 0
-447 -78 0
-127 -79 0
-128 -80 0
-129 -81 0
-211 -79 0
-212 -80 0
-213 -81 0
-337 -79 0
-338 -80 0
-339 -81 0
-217 -82 0
-218 -83 0
-219 -84 0
-256 -82 0
-257 -83 0
-258 -84 0
-310 -82 0
-311 -83 0
-312 -84 0
-136 -85 0
-137 -86 0
-138 -87 0
-253 -85 0
-254 -86 0
-255 -87 0
-352 -85 0
-353 -86 0
-354 -87 0
-376 -85 0
-377 -86 0
-378 -87 0
-148 -88 0
-149 -89 0
-150 -90 0
-226 -88 0
-227 -89 0
-228 -90 0
-274 -88 0
-275 -89 0
-276 -90 0
-349 -88 0
-350 -89 0
-351 -90 0
-241 -91 0
-242 -92 0
-243 -93 0
-301 -91 0
-302 -92 0
-303 -93 0
-361 -91 0
-362 -92 0
-363 -93 0
-373 -91 0
-374 -92 0
-375 -93 0
-229 -94 0
-230 -95 0
-231 -96 0
-403 -94 0
-404 -95 0
-405 -96 0
-448 -94 0
-449 -95 0
-450 -96 0
-316 -97 0
-317 -98 0
-318 -99 0
-319 -97 0
-320 -98 0
-321 -99 0
-349 -97 0
-350 -98 0
-351 -99 0
-382 -97 0
-383 -98 0
-384 -99 0
-133 -100 0
-134 -101 0
-135 -102 0
-223 -100 0
-224 -101 0
-225 -102 0
-229 -100 0
-230 -101 0
-231 -102 0
-178 -103 0
-179 -104 0
-180 -105 0
-262 -103 0
-263 -104 0
-264 -105 0
-334 -103 0
-335 -104 0
-336 -105 0
-355 -103 0
-356 -104 0
-357 -105 0
-373 -103 0
-374 -104 0
-375 -105 0
-160 -106 0
-161 -107 0
-162 -108 0
-274 -106 0
-275 -107 0
-276 -108 0
-286 -106 0
-287 -107 0
-288 -108 0
-244 -109 0
-245 -110 0
-246 -111 0
-268 -109 0
-269 -110 0
-270 -111 0
-319 -109 0
-320 -110 0
-321 -111 0
-361 -109 0
-362 -110 0
-363 -111 0
-355 -112 0
-356 -113 0
-357 -114 0
-127 -115 0
-128 -116 0
-129 -117 0
-154 -115 0
-155 -116 0
-156 -117 0
-232 -115 0
-233 -116 0
-234 -117 0
-277 -115 0
-278 -116 0
-279 -117 0
-382 -115 0
-383 -116 0
-384 -117 0
-247 -118 0
-248 -119 0
-249 -120 0
-304 -118 0
-305 -119 0
-306 -120 0
-142 -121 0
-143 -122 0
-144 -123 0
-286 -121 0
-287 -122 0
-288 -123 0
-310 -121 0
-311 -122 0
-312 -123 0
-358 -121 0
-359 -122 0
-360 -123 0
-136 -124 0
-137 -125 0
-138 -126 0
-208 -124 0
-209 -125 0
-210 -126 0
-352 -124 0
-353 -125 0
-354 -126 0
-373 -124 0
-374 -125 0
-375 -126 0
-154 -130 0
-155 -131 0
-156 -132 0
-277 -130 0
-278 -131 0
-279 -132 0
-370 -130 0
-371 -131 0
-372 -132 0
-436 -130 0
-437 -131 0
-438 -132 0
-148 -133 0
-149 -134 0
-150 -135 0
-157 -133 0
-158 -134 0
-159 -135 0
-184 -133 0
-185 -134 0
-186 -135 0
-226 -133 0
-227 -134 0
-228 -135 0
-367 -133 0
-368 -134 0
-369 -135 0
-385 -133 0
-386 -134 0
-387 -135 0
-157 -136 0
-158 -137 0
-159 -138 0
-181 -136 0
-182 -137 0
-183 -138 0
-244 -136 0
-245 -137 0
-246 -138 0
-292 -136 0
-293 -137 0
-294 -138 0
-298 -136 0
-299 -137 0
-300 -138 0
-322 -136 0
-323 -137 0
-324 -138 0
-187 -139 0
-188 -140 0
-189 -141 0
-199 -139 0
-200 -140 0
-201 -141 0
-238 -139 0
-239 -140 0
-240 -141 0
-241 -139 0
-242 -140 0
-243 -141 0
-301 -139 0
-302 -140 0
-303 -141 0
-316 -139 0
-317 -140 0
-318 -141 0
-148 -142 0
-149 -143 0
-150 -144 0
-247 -142 0
-248 -143 0
-249 -144 0
-394 -142 0
-395 -143 0
-396 -144 0
-406 -142 0
-407 -143 0
-408 -144 0
-187 -145 0
-188 -146 0
-189 -147 0
-190 -145 0
-191 -146 0
-192 -147 0
-229 -145 0
-230 -146 0
-231 -147 0
-235 -145 0
-236 -146 0
-237 -147 0
-253 -145 0
-254 -146 0
-255 -147 0
-391 -145 0
-392 -146 0
-393 -147 0
-151 -148 0
-152 -149 0
-153 -150 0
-244 -151 0
-245 -152 0
-246 -153 0
-292 -151 0
-293 -152 0
-294 -153 0
-352 -151 0
-353 -152 0
-354 -153 0
-430 -151 0
-431 -152 0
-432 -153 0
-367 -154 0
-368 -155 0
-369 -156 0
-400 -154 0
-401 -155 0
-402 -156 0
-424 -154 0
-425 -155 0
-426 -156 0
-238 -157 0
-239 -158 0
-240 -159 0
-424 -157 0
-425 -158 0
-426 -159 0
-445 -157 0
-446 -158 0
-447 -159 0
-322 -160 0
-323 -161 0
-324 -162 0
-370 -160 0
-371 -161 0
-372 -162 0
-421 -160 0
-422 -161 0
-423 -162 0
-235 -163 0
-236 -164 0
-237 -165 0
-247 -163 0
-248 -164 0
-249 -165 0
-283 -163 0
-284 -164 0
-285 -165 0
-409 -163 0
-410 -164 0
-411 -165 0
-412 -163 0
-413 -164 0
-414 -165 0
-277 -166 0
-278 -167 0
-279 -168 0
-361 -166 0
-362 -167 0
-363 -168 0
-400 -166 0
-401 -167 0
-402 -168 0
-436 -166 0
-437 -167 0
-438 -168 0
-235 -169 0
-236 -170 0
-237 -171 0
-256 -169 0
-257 -170 0
-258 -171 0
-373 -169 0
-374 -170 0
-375 -171 0
-385 -169 0
-386 -170 0
-387 -171 0
-214 -172 0
-215 -173 0
-216 -174 0
-232 -172 0
-233 -173 0
-234 -174 0
-328 -172 0
-329 -173 0
-330 -174 0
-424 -172 0
-425 -173 0
-426 -174 0
-190 -175 0
-191 -176 0
-192 -177 0
-436 -175 0
-437 -176 0
-438 -177 0
-184 -178 0
-185 -179 0
-186 -180 0
-199 -178 0
-200 -179 0
-201 -180 0
-259 -178 0
-260 -179 0
-261 -180 0
-274 -178 0
-275 -179 0
-276 -180 0
-319 -178 0
-320 -179 0
-321 -180 0
-394 -178 0
-395 -179 0
-396 -180 0
-415 -178 0
-416 -179 0
-417 -180 0
-292 -181 0
-293 -182 0
-294 -183 0
-340 -181 0
-341 -182 0
-342 -183 0
-397 -181 0
-398 -182 0
-399 -183 0
-436 -181 0
-437 -182 0
-438 -183 0
-202 -187 0
-203 -188 0
-204 -189 0
-259 -187 0
-260 -188 0
-261 -189 0
-253 -190 0
-254 -191 0
-255 -192 0
-343 -190 0
-344 -191 0
-345 -192 0
-199 -193 0
-200 -194 0
-201 -195 0
-226 -193 0
-227 -194 0
-228 -195 0
-256 -193 0
-257 -194 0
-258 -195 0
-298 -193 0
-299 -194 0
-300 -195 0
-379 -193 0
-380 -194 0
-381 -195 0
-436 -193 0
-437 -194 0
-438 -195 0
-223 -196 0
-224 -197 0
-225 -198 0
-238 -196 0
-239 -197 0
-240 -198 0
-433 -196 0
-434 -197 0
-435 -198 0
-232 -199 0
-233 -200 0
-234 -201 0
-298 -199 0
-299 -200 0
-300 -201 0
-226 -202 0
-227 -203 0
-228 -204 0
-250 -202 0
-251 -203 0
-252 -204 0
-217 -205 0
-218 -206 0
-219 -207 0
-280 -205 0
-281 -206 0
-282 -207 0
-316 -205 0
-317 -206 0
-318 -207 0
-340 -205 0
-341 -206 0
-342 -207 0
-439 -205 0
-440 -206 0
-441 -207 0
-214 -208 0
-215 -209 0
-216 -210 0
-316 -208 0
-317 -209 0
-318 -210 0
-340 -208 0
-341 -209 0
-342 -210 0
-397 -211 0
-398 -212 0
-399 -213 0
-220 -214 0
-221 -215 0
-222 -216 0
-325 -217 0
-326 -218 0
-327 -219 0
-280 -220 0
-281 -221 0
-282 -222 0
-289 -220 0
-290 -221 0
-291 -222 0
-397 -220 0
-398 -221 0
-399 -222 0
-253 -223 0
-254 -224 0
-255 -225 0
-421 -223 0
-422 -224 0
-423 -225 0
-361 -226 0
-362 -227 0
-363 -228 0
-265 -229 0
-266 -230 0
-267 -231 0
-325 -229 0
-326 -230 0
-327 -231 0
-394 -229 0
-395 -230 0
-396 -231 0
-424 -232 0
-425 -233 0
-426 -234 0
-262 -235 0
-263 -236 0
-264 -237 0
-286 -238 0
-287 -239 0
-288 -240 0
-349 -238 0
-350 -239 0
-351 -240 0
-370 -238 0
-371 -239 0
-372 -240 0
-298 -241 0
-299 -242 0
-300 -243 0
-379 -241 0
-380 -242 0
-381 -243 0
-442 -241 0
-443 -242 0
-444 -243 0
-265 -244 0
-266 -245 0
-267 -246 0
-307 -244 0
-308 -245 0
-309 -246 0
-442 -244 0
-443 -245 0
-444 -246 0
-283 -247 0
-284 -248 0
-285 -249 0
-382 -250 0
-383 -251 0
-384 -252 0
-295 -253 0
-296 -254 0
-297 -255 0
-379 -253 0
-380 -254 0
-381 -255 0
-319 -256 0
-320 -257 0
-321 -258 0
-385 -256 0
-386 -257 0
-387 -258 0
-271 -259 0
-272 -260 0
-273 -261 0
-421 -259 0
-422 -260 0
-423 -261 0
-283 -262 0
-284 -263 0
-285 -264 0
-364 -262 0
-365 -263 0
-366 -264 0
-289 -265 0
-290 -266 0
-291 -267 0
-283 -268 0
-284 -269 0
-285 -270 0
-331 -268 0
-332 -269 0
-333 -270 0
-376 -268 0
-377 -269 0
-378 -270 0
-403 -268 0
-404 -269 0
-405 -270 0
-418 -271 0
-419 -272 0
-420 -273 0
-397 -274 0
-398 -275 0
-399 -276 0
-391 -277 0
-392 -278 0
-393 -279 0
-445 -277 0
-446 -278 0
-447 -279 0
-325 -280 0
-326 -281 0
-327 -282 0
-301 -283 0
-302 -284 0
-303 -285 0
-409 -286 0
-410 -287 0
-411 -288 0
-301 -289 0
-302 -290 0
-303 -291 0
-358 -289 0
-359 -290 0
-360 -291 0
-331 -292 0
-332 -293 0
-333 -294 0
-379 -292 0
-380 -293 0
-381 -294 0
-355 -295 0
-356 -296 0
-357 -297 0
-409 -295 0
-410 -296 0
-411 -297 0
-424 -295 0
-425 -296 0
-426 -297 0
-418 -298 0
-419 -299 0
-420 -300 0
-337 -301 0
-338 -302 0
-339 -303 0
-376 -301 0
-377 -302 0
-378 -303 0
-340 -304 0
-341 -305 0
-342 -306 0
-325 -307 0
-326 -308 0
-327 -309 0
-331 -307 0
-332 -308 0
-333 -309 0
-430 -307 0
-431 -308 0
-432 -309 0
-415 -310 0
-416 -311 0
-417 -312 0
-376 -313 0
-377 -314 0
-378 -315 0
-445 -313 0
-446 -314 0
-447 -315 0
-343 -319 0
-344 -320 0
-345 -321 0
-379 -319 0
-380 -320 0
-381 -321 0
-424 -319 0
-425 -320 0
-426 -321 0
-439 -325 0
-440 -326 0
-441 -327 0
-331 -328 0
-332 -329 0
-333 -330 0
-397 -328 0
-398 -329 0
-399 -330 0
-373 -331 0
-374 -332 0
-375 -333 0
-433 -331 0
-434 -332 0
-435 -333 0
-364 -334 0
-365 -335 0
-366 -336 0
-421 -340 0
-422 -341 0
-423 -342 0
-418 -343 0
-419 -344 0
-420 -345 0
-385 -346 0
-386 -347 0
-387 -348 0
-388 -349 0
-389 -350 0
-390 -351 0
-430 -349 0
-431 -350 0
-432 -351 0
-364 -358 0
-365 -359 0
-366 -360 0
-367 -358 0
-368 -359 0
-369 -360 0
-370 -361 0
-371 -362 0
-372 -363 0
-391 -361 0
-392 -362 0
-393 -363 0
-412 -361 0
-413 -362 0
-414 -363 0
-376 -370 0
-377 -371 0
-378 -372 0
-427 -370 0
-428 -371 0
-429 -372 0
-391 -376 0
-392 -377 0
-393 -378 0
-421 -376 0
-422 -377 0
-423 -378 0
-448 -382 0
-449 -383 0
-450 -384 0
-388 -385 0
-389 -386 0
-390 -387 0
-397 -385 0
-398 -386 0
-399 -387 0
-424 -391 0
-425 -392 0
-426 -393 0
-439 -394 0
-440 -395 0
-441 -396 0
-430 -424 0
-431 -425 0
-432 -426 0
